cantSalas = 3;
cantRamos = 40;
bloques = [1, 1, 1, 1, 1, 1, 2, 1, 1, 1, 1, 1, 1, 1, 2, 2, 1, 2, 1, 2, 1, 1, 1, 1, 2, 2, 2, 2, 1, 2, 1, 1, 2, 1, 2, 2, 2, 1, 1, 1];
capacidad = [77, 45, 70];
prioridad = [10, 4, 5, 2, 2, 7, 5, 1, 3, 1, 9, 5, 3, 5, 3, 10, 1, 3, 4, 2, 6, 4, 1, 5, 4, 8, 1, 2, 3, 4, 6, 4, 4, 3, 1, 10, 1, 2, 4, 5];
interes = [48, 50, 45, 59, 52, 41, 44, 79, 78, 57, 54, 65, 65, 78, 73, 58, 73, 49, 58, 61, 58, 53, 60, 70, 77, 48, 68, 79, 58, 75, 60, 43, 59, 78, 66, 60, 44, 42, 42, 71];
disponibilidad = array2d(1..cantRamos, 1..35, [
  false, true, true, false, true, false, false, true, true, true, true, false, true, false, true, true, true, false, false, false, true, true, false, false, false, true, true, false, false, true, false, false, true, true, true,
  false, true, true, false, true, true, false, true, true, true, true, true, true, false, false, false, true, true, true, false, false, false, false, false, false, false, false, true, true, false, false, true, true, false, false,
  true, true, true, false, true, true, true, true, true, false, false, true, false, true, true, true, true, true, false, false, true, true, true, true, true, false, false, true, true, true, true, true, false, false, true,
  true, true, true, true, true, true, true, false, true, true, true, true, true, true, true, true, true, false, false, true, false, true, true, true, true, false, false, false, true, true, true, true, true, true, true,
  true, false, false, true, true, true, true, true, false, false, true, true, true, true, true, true, true, true, true, true, true, true, true, true, false, true, true, false, true, true, true, true, false, true, true,
  true, true, true, false, true, false, true, true, true, true, false, true, false, false, false, false, false, false, true, false, true, true, true, false, false, false, false, false, false, true, false, false, true, false, false,
  true, false, false, false, true, true, true, true, false, true, false, true, true, true, true, true, false, false, true, false, true, true, false, false, false, false, true, false, false, true, true, false, false, true, true,
  false, true, true, false, false, false, true, true, true, false, true, false, false, true, true, false, false, false, true, false, true, false, false, true, false, false, true, false, false, true, false, true, false, false, true,
  true, true, true, true, true, true, true, true, true, false, false, true, false, false, false, true, true, true, true, true, true, true, true, false, true, true, true, true, true, true, false, true, true, true, true,
  true, false, true, false, true, false, true, false, true, false, true, false, true, true, true, false, true, false, true, false, true, false, true, true, true, true, true, true, true, true, true, true, true, true, false,
  true, false, true, false, true, false, true, false, true, true, false, false, true, true, true, true, true, true, true, false, false, false, true, true, false, false, true, true, true, true, true, true, true, true, true,
  true, true, true, false, true, true, true, true, true, true, true, true, true, false, true, true, true, true, false, true, true, false, false, false, true, true, true, true, false, true, true, true, true, true, true,
  true, true, true, false, true, false, false, false, false, true, true, false, false, false, false, false, true, true, true, true, true, false, false, false, false, true, true, true, true, false, true, true, false, true, false,
  false, true, true, true, false, true, true, true, true, true, true, true, true, true, false, true, true, true, true, false, true, false, false, false, true, false, true, true, true, true, true, true, false, true, true,
  true, true, false, true, true, true, true, true, true, false, false, false, true, false, true, true, true, true, false, false, true, false, true, true, true, true, true, true, true, true, false, false, true, true, true,
  true, true, false, true, false, true, true, true, false, true, false, true, true, true, true, true, true, false, true, false, true, false, false, false, true, true, false, true, true, false, true, true, true, false, true,
  false, false, false, false, true, true, false, false, true, false, true, false, false, false, true, false, false, true, true, true, true, true, false, true, true, true, true, true, true, false, false, true, false, false, false,
  false, true, false, true, true, true, true, false, false, true, false, false, false, false, false, true, false, true, false, false, true, true, false, true, true, false, true, true, true, false, false, false, false, true, true,
  true, false, true, false, true, true, false, true, true, true, false, true, false, true, true, false, true, true, true, true, true, false, true, true, true, false, true, true, false, false, false, true, true, true, true,
  true, false, true, false, true, true, true, true, false, false, true, false, false, true, false, false, true, false, true, false, true, false, false, true, false, false, false, false, false, false, true, true, true, false, false,
  true, true, false, false, false, false, true, true, false, false, true, false, true, true, false, true, false, false, true, true, true, true, true, true, false, false, true, true, false, true, false, true, true, false, false,
  true, true, true, true, false, true, true, false, true, true, true, true, true, false, true, false, false, true, true, true, false, true, true, true, false, true, false, true, true, true, true, true, true, true, true,
  true, true, false, false, true, true, false, false, false, false, true, false, false, false, false, false, true, false, true, true, false, false, true, true, true, false, true, false, false, false, true, false, true, false, true,
  true, false, true, false, false, true, true, true, true, true, true, false, false, true, false, true, true, true, true, true, true, true, true, true, true, true, false, false, true, false, true, false, false, true, true,
  true, true, true, true, false, true, false, false, true, true, true, true, false, false, false, false, false, true, true, true, false, false, true, false, false, true, false, false, true, false, false, true, true, false, false,
  false, true, false, false, true, true, true, true, true, true, true, true, true, false, true, false, true, false, true, false, true, true, true, true, false, true, true, false, false, false, true, true, false, false, true,
  false, true, true, false, true, true, false, true, true, true, true, false, false, true, true, true, true, false, false, true, true, true, true, false, true, true, true, true, false, false, true, false, true, false, true,
  true, true, true, false, true, true, false, true, true, false, true, false, true, false, true, false, true, true, false, true, true, false, false, true, true, true, true, false, false, false, false, true, false, false, true,
  true, true, false, true, false, true, false, false, true, true, true, false, true, true, true, true, true, true, true, true, true, true, false, true, true, true, true, true, true, false, true, true, false, false, false,
  false, false, true, false, true, true, false, true, false, true, true, false, false, true, true, true, true, false, true, false, false, true, true, false, true, false, false, true, false, true, false, true, true, false, false,
  false, true, true, true, true, false, false, true, true, false, false, true, true, true, true, false, true, false, false, false, true, true, false, true, false, false, false, false, true, false, false, false, false, true, true,
  false, true, true, true, false, false, false, true, true, false, false, false, true, false, false, false, true, false, true, false, false, true, false, false, true, true, true, true, true, false, true, true, true, true, true,
  true, false, true, true, true, false, false, false, false, true, true, true, true, false, false, false, false, false, true, false, true, true, true, false, false, true, true, false, false, true, false, true, true, true, false,
  false, true, true, false, true, true, true, false, true, true, false, true, true, false, true, false, false, true, false, true, true, false, true, true, true, false, false, true, true, false, true, true, false, false, false,
  true, false, false, true, false, true, true, true, false, true, true, true, true, true, true, true, false, true, true, true, false, false, true, true, true, true, true, false, false, true, false, true, true, true, true,
  true, false, true, false, true, false, true, false, false, true, true, false, true, false, false, true, false, true, false, true, false, false, true, true, false, true, true, true, false, true, true, true, false, true, false,
  false, true, true, false, true, false, false, true, true, false, false, true, false, false, false, false, true, false, false, false, false, true, true, true, false, true, false, false, false, false, true, true, true, false, false,
  true, true, false, true, true, false, true, false, true, true, false, true, false, false, true, false, true, false, true, true, true, true, false, false, true, true, false, false, true, false, true, false, true, false, false,
  false, false, false, false, true, false, false, false, false, true, false, false, false, true, true, true, false, true, true, true, true, false, false, true, false, true, false, false, false, false, false, false, true, true, true,
  true, true, true, false, true, false, true, false, true, false, false, false, true, true, true, true, true, true, true, false, false, true, true, true, true, false, true, true, true, true, true, true, false, false, true,
]);
